rehearsal = [[1,0,1,0,1,0,1,0,0,1], [0,0,1,0,1,0,1,1,1,1], [1,0,0,0,0,0,0,0,0,0], [1,0,0,1,1,1,1,0,1,1], [1,0,0,1,0,1,1,0,1,0], [0,0,0,1,0,1,0,0,0,0], [1,1,0,0,1,1,0,1,1,1], [1,1,1,1,0,1,0,1,1,0], [0,1,1,0,1,1,0,0,0,1], [1,1,1,0,0,1,1,1,0,1]];
permutations = [3,8,10,5,7,9,1,2,6,4];